c File: flat50_3_0.col
c
c SOURCE: Joseph Culberson (joe@cs.ualberta.ca)
c DESCRIPTION: Quasi-random coloring problem
c              generated with flatness = 0
c                             probability = 0.139
c                             known coloring = 3
c                             random seed = 1656
c              Creation Date:  Tue Jun  9 12:14:39 1998
c Maximum degree = 8 Minimum degree = 0
c p edge 50 115
c cnf created by edge2cnf
p cnf 150 545
-1 -2 0
-1 -3 0
-2 -3 0
1 2 3 0
-4 -5 0
-4 -6 0
-5 -6 0
4 5 6 0
-7 -8 0
-7 -9 0
-8 -9 0
7 8 9 0
-10 -11 0
-10 -12 0
-11 -12 0
10 11 12 0
-13 -14 0
-13 -15 0
-14 -15 0
13 14 15 0
-16 -17 0
-16 -18 0
-17 -18 0
16 17 18 0
-19 -20 0
-19 -21 0
-20 -21 0
19 20 21 0
-22 -23 0
-22 -24 0
-23 -24 0
22 23 24 0
-25 -26 0
-25 -27 0
-26 -27 0
25 26 27 0
-28 -29 0
-28 -30 0
-29 -30 0
28 29 30 0
-31 -32 0
-31 -33 0
-32 -33 0
31 32 33 0
-34 -35 0
-34 -36 0
-35 -36 0
34 35 36 0
-37 -38 0
-37 -39 0
-38 -39 0
37 38 39 0
-40 -41 0
-40 -42 0
-41 -42 0
40 41 42 0
-43 -44 0
-43 -45 0
-44 -45 0
43 44 45 0
-46 -47 0
-46 -48 0
-47 -48 0
46 47 48 0
-49 -50 0
-49 -51 0
-50 -51 0
49 50 51 0
-52 -53 0
-52 -54 0
-53 -54 0
52 53 54 0
-55 -56 0
-55 -57 0
-56 -57 0
55 56 57 0
-58 -59 0
-58 -60 0
-59 -60 0
58 59 60 0
-61 -62 0
-61 -63 0
-62 -63 0
61 62 63 0
-64 -65 0
-64 -66 0
-65 -66 0
64 65 66 0
-67 -68 0
-67 -69 0
-68 -69 0
67 68 69 0
-70 -71 0
-70 -72 0
-71 -72 0
70 71 72 0
-73 -74 0
-73 -75 0
-74 -75 0
73 74 75 0
-76 -77 0
-76 -78 0
-77 -78 0
76 77 78 0
-79 -80 0
-79 -81 0
-80 -81 0
79 80 81 0
-82 -83 0
-82 -84 0
-83 -84 0
82 83 84 0
-85 -86 0
-85 -87 0
-86 -87 0
85 86 87 0
-88 -89 0
-88 -90 0
-89 -90 0
88 89 90 0
-91 -92 0
-91 -93 0
-92 -93 0
91 92 93 0
-94 -95 0
-94 -96 0
-95 -96 0
94 95 96 0
-97 -98 0
-97 -99 0
-98 -99 0
97 98 99 0
-100 -101 0
-100 -102 0
-101 -102 0
100 101 102 0
-103 -104 0
-103 -105 0
-104 -105 0
103 104 105 0
-106 -107 0
-106 -108 0
-107 -108 0
106 107 108 0
-109 -110 0
-109 -111 0
-110 -111 0
109 110 111 0
-112 -113 0
-112 -114 0
-113 -114 0
112 113 114 0
-115 -116 0
-115 -117 0
-116 -117 0
115 116 117 0
-118 -119 0
-118 -120 0
-119 -120 0
118 119 120 0
-121 -122 0
-121 -123 0
-122 -123 0
121 122 123 0
-124 -125 0
-124 -126 0
-125 -126 0
124 125 126 0
-127 -128 0
-127 -129 0
-128 -129 0
127 128 129 0
-130 -131 0
-130 -132 0
-131 -132 0
130 131 132 0
-133 -134 0
-133 -135 0
-134 -135 0
133 134 135 0
-136 -137 0
-136 -138 0
-137 -138 0
136 137 138 0
-139 -140 0
-139 -141 0
-140 -141 0
139 140 141 0
-142 -143 0
-142 -144 0
-143 -144 0
142 143 144 0
-145 -146 0
-145 -147 0
-146 -147 0
145 146 147 0
-148 -149 0
-148 -150 0
-149 -150 0
148 149 150 0
-61 -1 0
-62 -2 0
-63 -3 0
-94 -1 0
-95 -2 0
-96 -3 0
-139 -1 0
-140 -2 0
-141 -3 0
-67 -4 0
-68 -5 0
-69 -6 0
-76 -4 0
-77 -5 0
-78 -6 0
-85 -4 0
-86 -5 0
-87 -6 0
-130 -4 0
-131 -5 0
-132 -6 0
-61 -7 0
-62 -8 0
-63 -9 0
-88 -7 0
-89 -8 0
-90 -9 0
-94 -7 0
-95 -8 0
-96 -9 0
-109 -7 0
-110 -8 0
-111 -9 0
-112 -7 0
-113 -8 0
-114 -9 0
-118 -7 0
-119 -8 0
-120 -9 0
-127 -7 0
-128 -8 0
-129 -9 0
-115 -10 0
-116 -11 0
-117 -12 0
-127 -10 0
-128 -11 0
-129 -12 0
-88 -13 0
-89 -14 0
-90 -15 0
-103 -13 0
-104 -14 0
-105 -15 0
-121 -13 0
-122 -14 0
-123 -15 0
-130 -13 0
-131 -14 0
-132 -15 0
-52 -16 0
-53 -17 0
-54 -18 0
-67 -16 0
-68 -17 0
-69 -18 0
-103 -16 0
-104 -17 0
-105 -18 0
-115 -16 0
-116 -17 0
-117 -18 0
-121 -16 0
-122 -17 0
-123 -18 0
-136 -16 0
-137 -17 0
-138 -18 0
-52 -19 0
-53 -20 0
-54 -21 0
-127 -19 0
-128 -20 0
-129 -21 0
-64 -22 0
-65 -23 0
-66 -24 0
-100 -22 0
-101 -23 0
-102 -24 0
-121 -22 0
-122 -23 0
-123 -24 0
-58 -25 0
-59 -26 0
-60 -27 0
-70 -25 0
-71 -26 0
-72 -27 0
-73 -25 0
-74 -26 0
-75 -27 0
-100 -25 0
-101 -26 0
-102 -27 0
-112 -25 0
-113 -26 0
-114 -27 0
-76 -28 0
-77 -29 0
-78 -30 0
-85 -28 0
-86 -29 0
-87 -30 0
-61 -31 0
-62 -32 0
-63 -33 0
-64 -31 0
-65 -32 0
-66 -33 0
-79 -31 0
-80 -32 0
-81 -33 0
-94 -31 0
-95 -32 0
-96 -33 0
-103 -31 0
-104 -32 0
-105 -33 0
-52 -34 0
-53 -35 0
-54 -36 0
-73 -34 0
-74 -35 0
-75 -36 0
-79 -34 0
-80 -35 0
-81 -36 0
-82 -34 0
-83 -35 0
-84 -36 0
-127 -34 0
-128 -35 0
-129 -36 0
-61 -37 0
-62 -38 0
-63 -39 0
-64 -37 0
-65 -38 0
-66 -39 0
-67 -37 0
-68 -38 0
-69 -39 0
-103 -37 0
-104 -38 0
-105 -39 0
-106 -37 0
-107 -38 0
-108 -39 0
-118 -37 0
-119 -38 0
-120 -39 0
-121 -37 0
-122 -38 0
-123 -39 0
-88 -40 0
-89 -41 0
-90 -42 0
-91 -40 0
-92 -41 0
-93 -42 0
-118 -40 0
-119 -41 0
-120 -42 0
-133 -40 0
-134 -41 0
-135 -42 0
-148 -40 0
-149 -41 0
-150 -42 0
-100 -43 0
-101 -44 0
-102 -45 0
-106 -43 0
-107 -44 0
-108 -45 0
-136 -43 0
-137 -44 0
-138 -45 0
-139 -43 0
-140 -44 0
-141 -45 0
-142 -43 0
-143 -44 0
-144 -45 0
-64 -46 0
-65 -47 0
-66 -48 0
-82 -46 0
-83 -47 0
-84 -48 0
-100 -46 0
-101 -47 0
-102 -48 0
-109 -46 0
-110 -47 0
-111 -48 0
-112 -46 0
-113 -47 0
-114 -48 0
-118 -46 0
-119 -47 0
-120 -48 0
-136 -46 0
-137 -47 0
-138 -48 0
-67 -49 0
-68 -50 0
-69 -51 0
-88 -49 0
-89 -50 0
-90 -51 0
-94 -49 0
-95 -50 0
-96 -51 0
-112 -49 0
-113 -50 0
-114 -51 0
-136 -49 0
-137 -50 0
-138 -51 0
-109 -52 0
-110 -53 0
-111 -54 0
-118 -52 0
-119 -53 0
-120 -54 0
-127 -52 0
-128 -53 0
-129 -54 0
-148 -52 0
-149 -53 0
-150 -54 0
-136 -55 0
-137 -56 0
-138 -57 0
-112 -58 0
-113 -59 0
-114 -60 0
-121 -58 0
-122 -59 0
-123 -60 0
-130 -58 0
-131 -59 0
-132 -60 0
-148 -58 0
-149 -59 0
-150 -60 0
-136 -61 0
-137 -62 0
-138 -63 0
-112 -64 0
-113 -65 0
-114 -66 0
-118 -64 0
-119 -65 0
-120 -66 0
-145 -64 0
-146 -65 0
-147 -66 0
-127 -67 0
-128 -68 0
-129 -69 0
-103 -70 0
-104 -71 0
-105 -72 0
-112 -76 0
-113 -77 0
-114 -78 0
-112 -79 0
-113 -80 0
-114 -81 0
-103 -82 0
-104 -83 0
-105 -84 0
-130 -82 0
-131 -83 0
-132 -84 0
-142 -82 0
-143 -83 0
-144 -84 0
-109 -85 0
-110 -86 0
-111 -87 0
-121 -85 0
-122 -86 0
-123 -87 0
-142 -85 0
-143 -86 0
-144 -87 0
-118 -88 0
-119 -89 0
-120 -90 0
-121 -88 0
-122 -89 0
-123 -90 0
-142 -88 0
-143 -89 0
-144 -90 0
-115 -91 0
-116 -92 0
-117 -93 0
-133 -91 0
-134 -92 0
-135 -93 0
-145 -91 0
-146 -92 0
-147 -93 0
-127 -94 0
-128 -95 0
-129 -96 0
-136 -94 0
-137 -95 0
-138 -96 0
-139 -94 0
-140 -95 0
-141 -96 0
-127 -97 0
-128 -98 0
-129 -99 0
-130 -97 0
-131 -98 0
-132 -99 0
-145 -97 0
-146 -98 0
-147 -99 0
-148 -97 0
-149 -98 0
-150 -99 0
-103 -100 0
-104 -101 0
-105 -102 0
-136 -100 0
-137 -101 0
-138 -102 0
